10 1 19 4 19 8 17 8 19 8 17 4 15 3
10 1 19 3 12 1 24 3 19 1 22 4 20 3 19 1 17 4 19 3 14 1 15 4 12 4
15 4 15 1 14 1 15 1 17 4 19 3 17 1 17 4 12 4 
15 1 15 1 15 1 15 1 14 0 15 0 17 0 15 0 15 4 10 4
22 4 21 3 19 1 17 4 14 4 15 4 14 1 12 1 14 1 10 5 
10 1 19 4 19 8 17 8 19 8 17 4 15 3
10 1 19 3 12 1 24 3 19 1 22 4 20 3 19 1 17 4 19 3 14 1 15 4 12 4
15 4 15 1 14 1 15 1 17 4 19 3 17 1 17 4 12 4 
15 1 15 1 15 1 15 1 14 0 15 0 17 0 15 0 15 4 10 4
22 4 21 3 19 1 17 4 14 4 15 4 14 1 12 1 14 1 10 5 